(declare-const X String)
; ((https?|ftp|gopher|telnet|file|notes|ms-help):((//)|(\\\\))+[\w\d:#@%/;$()~_\+-=\\\.&]*)
(assert (str.in_re X (re.++ (str.to_re "\u{a}") (re.union (re.++ (str.to_re "http") (re.opt (str.to_re "s"))) (str.to_re "ftp") (str.to_re "gopher") (str.to_re "telnet") (str.to_re "file") (str.to_re "notes") (str.to_re "ms-help")) (str.to_re ":") (re.+ (re.union (str.to_re "//") (str.to_re "\u{5c}\u{5c}"))) (re.* (re.union (re.range "0" "9") (str.to_re ":") (str.to_re "#") (str.to_re "@") (str.to_re "%") (str.to_re "/") (str.to_re ";") (str.to_re "$") (str.to_re "(") (str.to_re ")") (str.to_re "~") (str.to_re "_") (re.range "+" "=") (str.to_re "\u{5c}") (str.to_re ".") (str.to_re "&") (re.range "0" "9") (re.range "A" "Z") (re.range "a" "z") (str.to_re "_"))))))
; corep\x2Edmcast\x2Ecom\s+FunWebProducts\sMycount\x2Eyok\x2EcomProBuilt-inBasicYWRtaW46cGFzc3dvcmQ
(assert (not (str.in_re X (re.++ (str.to_re "corep.dmcast.com") (re.+ (re.union (str.to_re " ") (str.to_re "\u{9}") (str.to_re "\u{a}") (str.to_re "\u{c}") (str.to_re "\u{d}"))) (str.to_re "FunWebProducts") (re.union (str.to_re " ") (str.to_re "\u{9}") (str.to_re "\u{a}") (str.to_re "\u{c}") (str.to_re "\u{d}")) (str.to_re "Mycount.yok.comProBuilt-inBasicYWRtaW46cGFzc3dvcmQ\u{a}")))))
; CD\x2F\.ico\x2FsLogearch195\.225\.
(assert (not (str.in_re X (str.to_re "CD/.ico/sLogearch195.225.\u{a}"))))
(check-sat)
